
Gurobi 7.5.1 (win64, Python) logging started 08/17/17 13:56:56


Gurobi 7.5.1 (win64, Python) logging started 08/17/17 13:57:31

Optimize a model with 9 rows, 10 columns and 26 nonzeros
Coefficient statistics:
  Matrix range     [4e-01, 1e+00]
  Objective range  [4e-02, 1e-01]
  Bounds range     [0e+00, 0e+00]
  RHS range        [2e+04, 1e+05]
Presolve removed 2 rows and 2 columns
Presolve time: 0.00s
Presolved: 7 rows, 8 columns, 25 nonzeros

Iteration    Objective       Primal Inf.    Dual Inf.      Time
       0    1.2700000e+04   1.562500e+04   0.000000e+00      0s
       5    9.5421429e+03   0.000000e+00   0.000000e+00      0s

Solved in 5 iterations and 0.00 seconds
Optimal objective  9.542142857e+03

Gurobi 7.5.1 (win64, Python) logging started 08/17/17 13:57:45

Optimize a model with 9 rows, 10 columns and 26 nonzeros
Coefficient statistics:
  Matrix range     [4e-01, 1e+00]
  Objective range  [4e-02, 1e-01]
  Bounds range     [0e+00, 0e+00]
  RHS range        [2e+04, 1e+05]
Presolve removed 2 rows and 2 columns
Presolve time: 0.00s
Presolved: 7 rows, 8 columns, 25 nonzeros

Iteration    Objective       Primal Inf.    Dual Inf.      Time
       0    1.2700000e+04   1.562500e+04   0.000000e+00      0s
       5    9.5421429e+03   0.000000e+00   0.000000e+00      0s

Solved in 5 iterations and 0.00 seconds
Optimal objective  9.542142857e+03

Gurobi 7.5.1 (win64, Python) logging started 08/17/17 13:58:09

Optimize a model with 9 rows, 10 columns and 26 nonzeros
Coefficient statistics:
  Matrix range     [4e-01, 1e+00]
  Objective range  [4e-02, 1e-01]
  Bounds range     [0e+00, 0e+00]
  RHS range        [2e+04, 1e+05]
Presolve removed 2 rows and 2 columns
Presolve time: 0.00s
Presolved: 7 rows, 8 columns, 25 nonzeros

Iteration    Objective       Primal Inf.    Dual Inf.      Time
       0    1.2700000e+04   1.562500e+04   0.000000e+00      0s
       5    9.5421429e+03   0.000000e+00   0.000000e+00      0s

Solved in 5 iterations and 0.00 seconds
Optimal objective  9.542142857e+03

Gurobi 7.5.1 (win64, Python) logging started 08/17/17 14:05:45

Optimize a model with 9 rows, 10 columns and 26 nonzeros
Coefficient statistics:
  Matrix range     [4e-01, 1e+00]
  Objective range  [4e-02, 1e-01]
  Bounds range     [0e+00, 0e+00]
  RHS range        [2e+04, 1e+05]
Presolve removed 2 rows and 2 columns
Presolve time: 0.00s
Presolved: 7 rows, 8 columns, 25 nonzeros

Iteration    Objective       Primal Inf.    Dual Inf.      Time
       0    1.2700000e+04   1.562500e+04   0.000000e+00      0s
       5    9.5421429e+03   0.000000e+00   0.000000e+00      0s

Solved in 5 iterations and 0.00 seconds
Optimal objective  9.542142857e+03

Gurobi 7.5.1 (win64, Python) logging started 08/17/17 14:20:32

Optimize a model with 9 rows, 10 columns and 26 nonzeros
Coefficient statistics:
  Matrix range     [4e-01, 1e+00]
  Objective range  [4e-02, 1e-01]
  Bounds range     [0e+00, 0e+00]
  RHS range        [2e+04, 1e+05]
Presolve removed 2 rows and 2 columns
Presolve time: 0.00s
Presolved: 7 rows, 8 columns, 25 nonzeros

Iteration    Objective       Primal Inf.    Dual Inf.      Time
       0    1.2700000e+04   1.562500e+04   0.000000e+00      0s
       5    9.5421429e+03   0.000000e+00   0.000000e+00      0s

Solved in 5 iterations and 0.00 seconds
Optimal objective  9.542142857e+03

Gurobi 7.5.1 (win64, Python) logging started 08/17/17 14:21:17

Optimize a model with 9 rows, 10 columns and 26 nonzeros
Coefficient statistics:
  Matrix range     [4e-01, 1e+00]
  Objective range  [4e-02, 1e-01]
  Bounds range     [0e+00, 0e+00]
  RHS range        [2e+04, 1e+05]
Presolve removed 2 rows and 2 columns
Presolve time: 0.00s
Presolved: 7 rows, 8 columns, 25 nonzeros

Iteration    Objective       Primal Inf.    Dual Inf.      Time
       0    1.2700000e+04   1.562500e+04   0.000000e+00      0s
       5    9.5421429e+03   0.000000e+00   0.000000e+00      0s

Solved in 5 iterations and 0.00 seconds
Optimal objective  9.542142857e+03

Gurobi 7.5.1 (win64, Python) logging started 08/17/17 14:21:34

Optimize a model with 9 rows, 10 columns and 26 nonzeros
Coefficient statistics:
  Matrix range     [4e-01, 1e+00]
  Objective range  [4e-02, 1e-01]
  Bounds range     [0e+00, 0e+00]
  RHS range        [2e+04, 1e+05]
Presolve removed 2 rows and 2 columns
Presolve time: 0.00s
Presolved: 7 rows, 8 columns, 25 nonzeros

Iteration    Objective       Primal Inf.    Dual Inf.      Time
       0    1.2700000e+04   1.562500e+04   0.000000e+00      0s
       5    9.5421429e+03   0.000000e+00   0.000000e+00      0s

Solved in 5 iterations and 0.00 seconds
Optimal objective  9.542142857e+03

Gurobi 7.5.1 (win64, Python) logging started 08/17/17 14:21:48

Optimize a model with 9 rows, 10 columns and 26 nonzeros
Coefficient statistics:
  Matrix range     [4e-01, 1e+00]
  Objective range  [4e-02, 1e-01]
  Bounds range     [0e+00, 0e+00]
  RHS range        [2e+04, 1e+05]
Presolve removed 2 rows and 2 columns
Presolve time: 0.00s
Presolved: 7 rows, 8 columns, 25 nonzeros

Iteration    Objective       Primal Inf.    Dual Inf.      Time
       0    1.2700000e+04   1.562500e+04   0.000000e+00      0s
       5    9.5421429e+03   0.000000e+00   0.000000e+00      0s

Solved in 5 iterations and 0.00 seconds
Optimal objective  9.542142857e+03

Gurobi 7.5.1 (win64, Python) logging started 08/17/17 14:22:09

Optimize a model with 9 rows, 10 columns and 26 nonzeros
Coefficient statistics:
  Matrix range     [4e-01, 1e+00]
  Objective range  [4e-02, 1e-01]
  Bounds range     [0e+00, 0e+00]
  RHS range        [2e+04, 1e+05]
Presolve removed 2 rows and 2 columns
Presolve time: 0.00s
Presolved: 7 rows, 8 columns, 25 nonzeros

Iteration    Objective       Primal Inf.    Dual Inf.      Time
       0    1.2700000e+04   1.562500e+04   0.000000e+00      0s
       5    9.5421429e+03   0.000000e+00   0.000000e+00      0s

Solved in 5 iterations and 0.00 seconds
Optimal objective  9.542142857e+03

Gurobi 7.5.1 (win64, Python) logging started 08/17/17 14:22:30

Optimize a model with 9 rows, 10 columns and 26 nonzeros
Coefficient statistics:
  Matrix range     [4e-01, 1e+00]
  Objective range  [4e-02, 1e-01]
  Bounds range     [0e+00, 0e+00]
  RHS range        [2e+04, 1e+05]
Presolve removed 2 rows and 2 columns
Presolve time: 0.00s
Presolved: 7 rows, 8 columns, 25 nonzeros

Iteration    Objective       Primal Inf.    Dual Inf.      Time
       0    1.2700000e+04   1.562500e+04   0.000000e+00      0s
       5    9.5421429e+03   0.000000e+00   0.000000e+00      0s

Solved in 5 iterations and 0.00 seconds
Optimal objective  9.542142857e+03
